N = 12;
H = 5;
T = 2;

avail = array3d(1..N, 1..H, 1..T, [7, 7, 0, 5, 2, 10, 5, 6, 7, 6, 9, 8, 8, 6, 8, 6, 10, 3, 4, 10, 9, 8, 5, 4, 6, 3, 10, 10, 2, 8, 0, 4, 4, 1, 3, 5, 3, 4, 6, 5, 9, 1, 10, 7, 6, 7, 5, 5, 0, 6, 7, 10, 4, 0, 4, 6, 0, 9, 5, 4, 5, 4, 10, 9, 6, 2, 10, 6, 6, 9, 6, 0, 10, 2, 3, 2, 6, 9, 3, 10, 10, 3, 8, 9, 7, 0, 9, 1, 5, 7, 8, 7, 4, 0, 3, 8, 6, 7, 6, 4, 5, 7, 0, 3, 10, 5, 9, 0, 6, 9, 9, 3, 1, 8, 7, 9, 9, 3, 8, 0]);

r = array2d(1..H, 1..T, [3, 3, 7, 2, 3, 1, 1, 2, 1, 5]);
